%%% static parameters %%%
timespan = 1;
Clients_N = [500];
Demand_W = [20];
Lt0 = [4];
Lt1 = [4];
SS_ = [0.85];
DS_D = [6];
K = [200];
MA = [500];
HC = [0.05];
%%% dynamic parameters %%%
lost_ratio_sales_ret_th = 3.43639615518555e-05;
lost_ratio_sales_ret_w = 10;
lost_ratio_sales_dis_th = 0.00026327069189973707;
lost_ratio_sales_dis_w = 99;
lost_ratio_sales_fac_th = 0.0009941701742353926;
lost_ratio_sales_fac_w = 27;
stock_customer_MA_mean_relative_th = 0.7690155496888302;
stock_customer_MA_mean_relative_w = 49;
stock_distributor_MA_mean_relative_th = 0.13562965176956165;
stock_distributor_MA_mean_relative_w = 13;
stock_retailer_MA_mean_relative_th = 0.6544622482644982;
stock_retailer_MA_mean_relative_w = 40;
stock_factory_MA_mean_relative_th = 0.6061231623935495;
stock_factory_MA_mean_relative_w = 47;
